archives/172.smt2
(set-logic QF_NRA)
(declare-fun x1 () Real)
(declare-fun x2 () Real)
(assert (<= 3.0 x1))
(assert (<= x1 3.14))
(assert (<= -7.0 x2))
(assert (<= x2 5.0))
(assert (<= (- (* 2.0 3.14159265) (* 2.0 (* x1 (arcsin (* (cos 0.797) (sin (/ 3.14159265 x1))))))) 
            (+ (- 0.591 (* 0.0331 x2)) (+ 0.506 1.0))))
(check-sat)
(exit)
